NAME : 10_3_3_2_(37).dat
COMMENT : Henke, Speranza, Wäscher, 2015
TYPE : MCVRP
DIMENSION : 11
EDGE_WEIGHT_TYPE : DISTANCE_MATRIX
CAPACITY : 1000
VEHICLES : 2
PRODUCT TYPES : 3
COMPARTMENTS : 3
NODE_COORD_SECTION
1 50 50
2 88.97 5.95
3 21.04 16.23
4 29.79 60.23
5 7.65 7.4
6 92.68 2.97
7 1.75 42.7
8 27.01 14.65
9 44.24 31.2
10 87.3 54.82
11 70 48.97
DEMAND_SECTION
1 0 0 0
2 27 0 53
3 118 62 0
4 116 73 0
5 87 7 0
6 99 82 0
7 35 50 0
8 28 0 18
9 0 54 84
10 65 68 0
11 80 0 107
DEPOT_SECTION
1
EOF